c Command line: hgen8 145 70
p cnf 145 227
108 128 70 104 0
48 77 20 11 0
105 39 137 19 0
60 129 50 44 0
93 14 51 24 0
131 134 30 64 0
8 26 99 139 0
84 103 114 17 0
2 22 10 5 0
142 144 72 143 0
7 69 38 15 0
138 54 46 89 0
112 79 124 59 0
117 13 23 91 0
127 133 122 145 0
135 118 83 36 0
67 41 29 87 0
55 106 73 92 0
113 110 68 62 0
65 96 74 78 0
18 82 76 21 0
34 126 132 32 0
86 121 94 88 0
45 58 4 85 0
9 75 52 53 0
66 31 47 119 0
115 90 80 140 0
102 71 35 141 0
107 136 27 81 0
101 12 63 97 0
-2 -4 0
-2 -5 0
-4 -5 0
-7 -8 0
-7 -9 0
-7 -10 0
-8 -9 0
-8 -10 0
-9 -10 0
-11 -12 0
-11 -13 0
-11 -14 0
-11 -15 0
-12 -13 0
-12 -14 0
-12 -15 0
-13 -14 0
-13 -15 0
-14 -15 0
-17 -18 0
-17 -19 0
-17 -20 0
-18 -19 0
-18 -20 0
-19 -20 0
-21 -22 0
-21 -23 0
-21 -24 0
-22 -23 0
-22 -24 0
-23 -24 0
-26 -27 0
-26 -29 0
-26 -30 0
-27 -29 0
-27 -30 0
-29 -30 0
-31 -32 0
-31 -34 0
-31 -35 0
-32 -34 0
-32 -35 0
-34 -35 0
-36 -38 0
-36 -39 0
-38 -39 0
-41 -44 0
-41 -45 0
-44 -45 0
-46 -47 0
-46 -48 0
-46 -50 0
-47 -48 0
-47 -50 0
-48 -50 0
-51 -52 0
-51 -53 0
-51 -54 0
-51 -55 0
-52 -53 0
-52 -54 0
-52 -55 0
-53 -54 0
-53 -55 0
-54 -55 0
-58 -59 0
-58 -60 0
-59 -60 0
-62 -63 0
-62 -64 0
-62 -65 0
-63 -64 0
-63 -65 0
-64 -65 0
-66 -67 0
-66 -68 0
-66 -69 0
-66 -70 0
-67 -68 0
-67 -69 0
-67 -70 0
-68 -69 0
-68 -70 0
-69 -70 0
-71 -72 0
-71 -73 0
-71 -74 0
-71 -75 0
-72 -73 0
-72 -74 0
-72 -75 0
-73 -74 0
-73 -75 0
-74 -75 0
-76 -77 0
-76 -78 0
-76 -79 0
-76 -80 0
-77 -78 0
-77 -79 0
-77 -80 0
-78 -79 0
-78 -80 0
-79 -80 0
-81 -82 0
-81 -83 0
-81 -84 0
-81 -85 0
-82 -83 0
-82 -84 0
-82 -85 0
-83 -84 0
-83 -85 0
-84 -85 0
-86 -87 0
-86 -88 0
-86 -89 0
-86 -90 0
-87 -88 0
-87 -89 0
-87 -90 0
-88 -89 0
-88 -90 0
-89 -90 0
-91 -92 0
-91 -93 0
-91 -94 0
-92 -93 0
-92 -94 0
-93 -94 0
-96 -97 0
-96 -99 0
-97 -99 0
-101 -102 0
-101 -103 0
-101 -104 0
-101 -105 0
-102 -103 0
-102 -104 0
-102 -105 0
-103 -104 0
-103 -105 0
-104 -105 0
-106 -107 0
-106 -108 0
-106 -110 0
-107 -108 0
-107 -110 0
-108 -110 0
-112 -113 0
-112 -114 0
-112 -115 0
-113 -114 0
-113 -115 0
-114 -115 0
-117 -118 0
-117 -119 0
-118 -119 0
-121 -122 0
-121 -124 0
-122 -124 0
-126 -127 0
-126 -128 0
-126 -129 0
-127 -128 0
-127 -129 0
-128 -129 0
-131 -132 0
-131 -133 0
-131 -134 0
-131 -135 0
-132 -133 0
-132 -134 0
-132 -135 0
-133 -134 0
-133 -135 0
-134 -135 0
-136 -137 0
-136 -138 0
-136 -139 0
-136 -140 0
-137 -138 0
-137 -139 0
-137 -140 0
-138 -139 0
-138 -140 0
-139 -140 0
-141 -142 0
-141 -143 0
-141 -144 0
-141 -145 0
-142 -143 0
-142 -144 0
-142 -145 0
-143 -144 0
-143 -145 0
-144 -145 0
